(set-logic QF_NRA)

(declare-fun x1 () Real)
(declare-fun x2 () Real)
(declare-fun x3 () Real)
(declare-fun x4 () Real)


(declare-fun p1 () Real)
(declare-fun p3 () Real)
(declare-fun p4 () Real)
(declare-fun p5 () Real)
(declare-fun p6 () Real)
(declare-fun p7 () Real)
(declare-fun p8 () Real)
(declare-fun p9 () Real)
(declare-fun p10 () Real)
(declare-fun p11 () Real)
(declare-fun p12 () Real)
(declare-fun p13 () Real)
(declare-fun p14 () Real)
(declare-fun p15 () Real)
(declare-fun p16 () Real)
(declare-fun p17 () Real)
(declare-fun p18 () Real)
(declare-fun p19 () Real)
(declare-fun p20 () Real)
(declare-fun p21 () Real)

(assert

(check-sat)
(exit)
